true false true
presolving:
presolving (0 rounds: 0 fast, 0 medium, 0 exhaustive):
 0 deleted vars, 0 deleted constraints, 0 added constraints, 0 tightened bounds, 0 added holes, 0 changed sides, 0 changed coefficients
 0 implications, 0 cliques
presolved problem has 57 variables (57 bin, 0 int, 0 impl, 0 cont) and 48 constraints
     48 constraints of type <linear>
transformed objective value is always integral (scale: 1)
Presolving Time: 0.00

 time | node  | left  |LP iter|LP it/n|mem/heur|mdpt |vars |cons |rows |cuts |sepa|confs|strbr|  dualbound   | primalbound  |  gap   | compl. 
p 0.0s|     1 |     0 |     0 |     - |shiftand|   0 |  57 |  48 |  48 |   0 |  0 |   0 |   0 |      --      | 9.000000e+00 |    Inf | unknown
 time | node  | left  |LP iter|LP it/n|mem/heur|mdpt |vars |cons |rows |cuts |sepa|confs|strbr|  dualbound   | primalbound  |  gap   | compl. 
  0.0s|     1 |     0 |    22 |     - |  1102k |   0 | 123 |  48 |  48 |   0 |  0 |   0 |   0 | 1.000000e+00 | 9.000000e+00 | 800.00%| unknown
 time | node  | left  |LP iter|LP it/n|mem/heur|mdpt |vars |cons |rows |cuts |sepa|confs|strbr|  dualbound   | primalbound  |  gap   | compl. 
  179s|     1 |     0 |   443 |     - |  3886k |   0 |1033 |  48 |  48 |   0 |  0 |   0 |   0 | 8.000000e+00 | 9.000000e+00 |  12.50%| unknown
 time | node  | left  |LP iter|LP it/n|mem/heur|mdpt |vars |cons |rows |cuts |sepa|confs|strbr|  dualbound   | primalbound  |  gap   | compl. 
  179s|     1 |     2 |   725 |     - |  4245k |   0 |1033 |  48 |  48 |   0 |  1 |   0 |   0 | 8.000000e+00 | 9.000000e+00 |  12.50%| unknown
 time | node  | left  |LP iter|LP it/n|mem/heur|mdpt |vars |cons |rows |cuts |sepa|confs|strbr|  dualbound   | primalbound  |  gap   | compl. 
  179s|     2 |     3 |   750 |  25.0 |  4304k |   1 |1033 |  48 |  48 |   0 |  1 |   0 |   0 | 8.000000e+00 | 9.000000e+00 |  12.50%| unknown
 time | node  | left  |LP iter|LP it/n|mem/heur|mdpt |vars |cons |rows |cuts |sepa|confs|strbr|  dualbound   | primalbound  |  gap   | compl. 
  179s|     3 |     4 |   784 |  29.5 |  4440k |   1 |1033 |  48 |  48 |   0 |  1 |   0 |   0 | 8.000000e+00 | 9.000000e+00 |  12.50%| unknown
 time | node  | left  |LP iter|LP it/n|mem/heur|mdpt |vars |cons |rows |cuts |sepa|confs|strbr|  dualbound   | primalbound  |  gap   | compl. 
  179s|     4 |     5 |   792 |  22.3 |  4456k |   2 |1033 |  48 |  48 |   0 |  1 |   0 |   0 | 8.000000e+00 | 9.000000e+00 |  12.50%| unknown
 time | node  | left  |LP iter|LP it/n|mem/heur|mdpt |vars |cons |rows |cuts |sepa|confs|strbr|  dualbound   | primalbound  |  gap   | compl. 
  179s|     5 |     6 |   812 |  21.8 |  4589k |   2 |1033 |  48 |  48 |   0 |  1 |   0 |   0 | 8.000000e+00 | 9.000000e+00 |  12.50%| unknown
 time | node  | left  |LP iter|LP it/n|mem/heur|mdpt |vars |cons |rows |cuts |sepa|confs|strbr|  dualbound   | primalbound  |  gap   | compl. 
  179s|     6 |     7 |   831 |  21.2 |  4597k |   3 |1033 |  48 |  48 |   0 |  1 |   0 |   0 | 8.000000e+00 | 9.000000e+00 |  12.50%| unknown
 time | node  | left  |LP iter|LP it/n|mem/heur|mdpt |vars |cons |rows |cuts |sepa|confs|strbr|  dualbound   | primalbound  |  gap   | compl. 
  179s|     7 |     8 |   858 |  22.2 |  4598k |   4 |1033 |  48 |  48 |   0 |  1 |   0 |   0 | 8.000000e+00 | 9.000000e+00 |  12.50%| unknown
 time | node  | left  |LP iter|LP it/n|mem/heur|mdpt |vars |cons |rows |cuts |sepa|confs|strbr|  dualbound   | primalbound  |  gap   | compl. 
  179s|     8 |     9 |   901 |  25.1 |  4598k |   4 |1033 |  48 |  48 |   0 |  1 |   0 |   0 | 8.000000e+00 | 9.000000e+00 |  12.50%| unknown
 time | node  | left  |LP iter|LP it/n|mem/heur|mdpt |vars |cons |rows |cuts |sepa|confs|strbr|  dualbound   | primalbound  |  gap   | compl. 
  180s|     9 |    10 |  1034 |  38.6 |  5610k |   5 |1365 |  48 |  48 |   0 |  1 |   0 |   0 | 8.000000e+00 | 9.000000e+00 |  12.50%| unknown
 time | node  | left  |LP iter|LP it/n|mem/heur|mdpt |vars |cons |rows |cuts |sepa|confs|strbr|  dualbound   | primalbound  |  gap   | compl. 
  180s|    10 |    11 |  1074 |  38.8 |  5623k |   5 |1365 |  48 |  48 |   0 |  1 |   0 |   0 | 8.000000e+00 | 9.000000e+00 |  12.50%| unknown
 time | node  | left  |LP iter|LP it/n|mem/heur|mdpt |vars |cons |rows |cuts |sepa|confs|strbr|  dualbound   | primalbound  |  gap   | compl. 
  180s|    11 |    12 |  1107 |  38.2 |  5637k |   6 |1365 |  48 |  48 |   0 |  1 |   0 |   0 | 8.000000e+00 | 9.000000e+00 |  12.50%| unknown
 time | node  | left  |LP iter|LP it/n|mem/heur|mdpt |vars |cons |rows |cuts |sepa|confs|strbr|  dualbound   | primalbound  |  gap   | compl. 
  180s|    12 |    13 |  1350 |  56.8 |  6252k |   6 |1377 |  48 |  48 |   0 |  1 |   0 |   0 | 8.000000e+00 | 9.000000e+00 |  12.50%| unknown
 time | node  | left  |LP iter|LP it/n|mem/heur|mdpt |vars |cons |rows |cuts |sepa|confs|strbr|  dualbound   | primalbound  |  gap   | compl. 
  180s|    13 |    14 |  1384 |  54.9 |  6257k |   7 |1377 |  48 |  48 |   0 |  1 |   0 |   0 | 8.000000e+00 | 9.000000e+00 |  12.50%| unknown
 time | node  | left  |LP iter|LP it/n|mem/heur|mdpt |vars |cons |rows |cuts |sepa|confs|strbr|  dualbound   | primalbound  |  gap   | compl. 
  182s|    14 |    15 |  1430 |  54.2 |  6710k |   8 |1457 |  48 |  48 |   0 |  1 |   0 |   0 | 8.000000e+00 | 9.000000e+00 |  12.50%| unknown
 time | node  | left  |LP iter|LP it/n|mem/heur|mdpt |vars |cons |rows |cuts |sepa|confs|strbr|  dualbound   | primalbound  |  gap   | compl. 
  182s|    15 |    16 |  1467 |  53.0 |  6711k |   8 |1457 |  48 |  48 |   0 |  1 |   0 |   0 | 8.000000e+00 | 9.000000e+00 |  12.50%| unknown
 time | node  | left  |LP iter|LP it/n|mem/heur|mdpt |vars |cons |rows |cuts |sepa|confs|strbr|  dualbound   | primalbound  |  gap   | compl. 
  182s|    16 |    17 |  1489 |  50.9 |  6720k |   9 |1457 |  48 |  48 |   0 |  1 |   0 |   0 | 8.000000e+00 | 9.000000e+00 |  12.50%| unknown
 time | node  | left  |LP iter|LP it/n|mem/heur|mdpt |vars |cons |rows |cuts |sepa|confs|strbr|  dualbound   | primalbound  |  gap   | compl. 
  183s|    17 |    18 |  1521 |  49.8 |  6810k |  10 |1487 |  48 |  48 |   0 |  1 |   0 |   0 | 8.000000e+00 | 9.000000e+00 |  12.50%| unknown
 time | node  | left  |LP iter|LP it/n|mem/heur|mdpt |vars |cons |rows |cuts |sepa|confs|strbr|  dualbound   | primalbound  |  gap   | compl. 
  184s|    18 |    19 |  1635 |  53.5 |  6811k |  11 |1487 |  48 |  48 |   0 |  1 |   0 |   0 | 8.000000e+00 | 9.000000e+00 |  12.50%| unknown
 time | node  | left  |LP iter|LP it/n|mem/heur|mdpt |vars |cons |rows |cuts |sepa|confs|strbr|  dualbound   | primalbound  |  gap   | compl. 
  186s|    19 |    20 |  1710 |  54.7 |  6893k |  11 |1502 |  48 |  48 |   0 |  1 |   0 |   0 | 8.000000e+00 | 9.000000e+00 |  12.50%| unknown
 time | node  | left  |LP iter|LP it/n|mem/heur|mdpt |vars |cons |rows |cuts |sepa|confs|strbr|  dualbound   | primalbound  |  gap   | compl. 
  188s|    20 |    19 |  1729 |  52.8 |  6899k |  11 |1507 |  48 |  48 |   0 |  0 |   0 |   0 | 8.000000e+00 | 9.000000e+00 |  12.50%| unknown
 time | node  | left  |LP iter|LP it/n|mem/heur|mdpt |vars |cons |rows |cuts |sepa|confs|strbr|  dualbound   | primalbound  |  gap   | compl. 
  191s|    21 |    18 |  1754 |  51.5 |  6899k |  11 |1518 |  48 |  48 |   0 |  0 |   0 |   0 | 8.000000e+00 | 9.000000e+00 |  12.50%| unknown
 time | node  | left  |LP iter|LP it/n|mem/heur|mdpt |vars |cons |rows |cuts |sepa|confs|strbr|  dualbound   | primalbound  |  gap   | compl. 
  191s|    22 |    19 |  1770 |  49.8 |  6899k |  11 |1518 |  48 |  48 |   0 |  1 |   0 |   0 | 8.000000e+00 | 9.000000e+00 |  12.50%| unknown
 time | node  | left  |LP iter|LP it/n|mem/heur|mdpt |vars |cons |rows |cuts |sepa|confs|strbr|  dualbound   | primalbound  |  gap   | compl. 
  191s|    23 |    20 |  1838 |  50.6 |  6966k |  11 |1518 |  48 |  48 |   0 |  1 |   0 |   0 | 8.000000e+00 | 9.000000e+00 |  12.50%| unknown
 time | node  | left  |LP iter|LP it/n|mem/heur|mdpt |vars |cons |rows |cuts |sepa|confs|strbr|  dualbound   | primalbound  |  gap   | compl. 
  193s|    24 |    19 |  1872 |  49.9 |  6967k |  12 |1521 |  48 |  48 |   0 |  0 |   0 |   0 | 8.000000e+00 | 9.000000e+00 |  12.50%| unknown
 time | node  | left  |LP iter|LP it/n|mem/heur|mdpt |vars |cons |rows |cuts |sepa|confs|strbr|  dualbound   | primalbound  |  gap   | compl. 
  193s|    25 |    20 |  1878 |  48.0 |  6967k |  12 |1521 |  48 |  48 |   0 |  1 |   0 |   0 | 8.000000e+00 | 9.000000e+00 |  12.50%| unknown
 time | node  | left  |LP iter|LP it/n|mem/heur|mdpt |vars |cons |rows |cuts |sepa|confs|strbr|  dualbound   | primalbound  |  gap   | compl. 
  193s|    26 |    21 |  2116 |  55.6 |  7020k |  13 |1528 |  48 |  48 |   0 |  1 |   0 |   0 | 8.000000e+00 | 9.000000e+00 |  12.50%| unknown
 time | node  | left  |LP iter|LP it/n|mem/heur|mdpt |vars |cons |rows |cuts |sepa|confs|strbr|  dualbound   | primalbound  |  gap   | compl. 
  195s|    27 |    20 |  2148 |  54.7 |  7021k |  13 |1530 |  48 |  48 |   0 |  0 |   0 |   0 | 8.000000e+00 | 9.000000e+00 |  12.50%| unknown
 time | node  | left  |LP iter|LP it/n|mem/heur|mdpt |vars |cons |rows |cuts |sepa|confs|strbr|  dualbound   | primalbound  |  gap   | compl. 
  196s|    28 |    21 |  2168 |  53.4 |  7021k |  14 |1535 |  48 |  48 |   0 |  1 |   0 |   0 | 8.000000e+00 | 9.000000e+00 |  12.50%| unknown
 time | node  | left  |LP iter|LP it/n|mem/heur|mdpt |vars |cons |rows |cuts |sepa|confs|strbr|  dualbound   | primalbound  |  gap   | compl. 
  196s|    29 |    20 |  2182 |  52.0 |  7025k |  15 |1536 |  48 |  48 |   0 |  0 |   0 |   0 | 8.000000e+00 | 9.000000e+00 |  12.50%| unknown
 time | node  | left  |LP iter|LP it/n|mem/heur|mdpt |vars |cons |rows |cuts |sepa|confs|strbr|  dualbound   | primalbound  |  gap   | compl. 
  198s|    30 |    19 |  2231 |  51.9 |  7025k |  15 |1563 |  48 |  48 |   0 |  0 |   0 |   0 | 8.000000e+00 | 9.000000e+00 |  12.50%| unknown
 time | node  | left  |LP iter|LP it/n|mem/heur|mdpt |vars |cons |rows |cuts |sepa|confs|strbr|  dualbound   | primalbound  |  gap   | compl. 
  198s|    31 |    20 |  2273 |  51.6 |  7140k |  15 |1563 |  48 |  48 |   0 |  1 |   0 |   0 | 8.000000e+00 | 9.000000e+00 |  12.50%| unknown
 time | node  | left  |LP iter|LP it/n|mem/heur|mdpt |vars |cons |rows |cuts |sepa|confs|strbr|  dualbound   | primalbound  |  gap   | compl. 
  198s|    32 |    21 |  2372 |  53.1 |  7164k |  15 |1563 |  48 |  48 |   0 |  1 |   0 |   0 | 8.000000e+00 | 9.000000e+00 |  12.50%| unknown
 time | node  | left  |LP iter|LP it/n|mem/heur|mdpt |vars |cons |rows |cuts |sepa|confs|strbr|  dualbound   | primalbound  |  gap   | compl. 
  198s|    33 |    22 |  2384 |  51.8 |  7165k |  15 |1563 |  48 |  48 |   0 |  1 |   0 |   0 | 8.000000e+00 | 9.000000e+00 |  12.50%| unknown
 time | node  | left  |LP iter|LP it/n|mem/heur|mdpt |vars |cons |rows |cuts |sepa|confs|strbr|  dualbound   | primalbound  |  gap   | compl. 
  198s|    34 |    21 |  2406 |  50.9 |  7170k |  15 |1564 |  48 |  48 |   0 |  0 |   0 |   0 | 8.000000e+00 | 9.000000e+00 |  12.50%| unknown
 time | node  | left  |LP iter|LP it/n|mem/heur|mdpt |vars |cons |rows |cuts |sepa|confs|strbr|  dualbound   | primalbound  |  gap   | compl. 
  198s|    35 |    22 |  2454 |  50.9 |  7332k |  15 |1564 |  48 |  48 |   0 |  1 |   0 |   0 | 8.000000e+00 | 9.000000e+00 |  12.50%| unknown
 time | node  | left  |LP iter|LP it/n|mem/heur|mdpt |vars |cons |rows |cuts |sepa|confs|strbr|  dualbound   | primalbound  |  gap   | compl. 
  198s|    36 |    23 |  2791 |  59.0 |  7336k |  15 |1564 |  48 |  48 |   0 |  1 |   0 |   0 | 8.000000e+00 | 9.000000e+00 |  12.50%| unknown
 time | node  | left  |LP iter|LP it/n|mem/heur|mdpt |vars |cons |rows |cuts |sepa|confs|strbr|  dualbound   | primalbound  |  gap   | compl. 
  199s|    37 |    24 |  2819 |  58.2 |  7338k |  15 |1564 |  48 |  48 |   0 |  1 |   0 |   0 | 8.000000e+00 | 9.000000e+00 |  12.50%| unknown
 time | node  | left  |LP iter|LP it/n|mem/heur|mdpt |vars |cons |rows |cuts |sepa|confs|strbr|  dualbound   | primalbound  |  gap   | compl. 
  199s|    38 |    25 |  2934 |  59.7 |  7347k |  15 |1564 |  48 |  48 |   0 |  1 |   0 |   0 | 8.000000e+00 | 9.000000e+00 |  12.50%| unknown
 time | node  | left  |LP iter|LP it/n|mem/heur|mdpt |vars |cons |rows |cuts |sepa|confs|strbr|  dualbound   | primalbound  |  gap   | compl. 
  199s|    39 |    26 |  2945 |  58.4 |  7348k |  15 |1564 |  48 |  48 |   0 |  1 |   0 |   0 | 8.000000e+00 | 9.000000e+00 |  12.50%| unknown
 time | node  | left  |LP iter|LP it/n|mem/heur|mdpt |vars |cons |rows |cuts |sepa|confs|strbr|  dualbound   | primalbound  |  gap   | compl. 
  199s|    40 |    27 |  2967 |  57.5 |  7350k |  15 |1564 |  48 |  48 |   0 |  1 |   0 |   0 | 8.000000e+00 | 9.000000e+00 |  12.50%| unknown
 time | node  | left  |LP iter|LP it/n|mem/heur|mdpt |vars |cons |rows |cuts |sepa|confs|strbr|  dualbound   | primalbound  |  gap   | compl. 
  199s|    41 |    28 |  3013 |  57.2 |  7352k |  15 |1564 |  48 |  48 |   0 |  1 |   0 |   0 | 8.000000e+00 | 9.000000e+00 |  12.50%| unknown
 time | node  | left  |LP iter|LP it/n|mem/heur|mdpt |vars |cons |rows |cuts |sepa|confs|strbr|  dualbound   | primalbound  |  gap   | compl. 
  199s|    42 |    29 |  3064 |  57.0 |  7352k |  15 |1564 |  48 |  48 |   0 |  1 |   0 |   0 | 8.000000e+00 | 9.000000e+00 |  12.50%| unknown
 time | node  | left  |LP iter|LP it/n|mem/heur|mdpt |vars |cons |rows |cuts |sepa|confs|strbr|  dualbound   | primalbound  |  gap   | compl. 
  200s|    43 |    28 |  3113 |  56.9 |  7358k |  15 |1576 |  48 |  48 |   0 |  0 |   0 |   0 | 8.000000e+00 | 9.000000e+00 |  12.50%| unknown
 time | node  | left  |LP iter|LP it/n|mem/heur|mdpt |vars |cons |rows |cuts |sepa|confs|strbr|  dualbound   | primalbound  |  gap   | compl. 
  201s|    44 |    27 |  3137 |  56.1 |  7366k |  15 |1581 |  48 |  48 |   0 |  0 |   0 |   0 | 8.000000e+00 | 9.000000e+00 |  12.50%| unknown
 time | node  | left  |LP iter|LP it/n|mem/heur|mdpt |vars |cons |rows |cuts |sepa|confs|strbr|  dualbound   | primalbound  |  gap   | compl. 
  201s|    45 |    28 |  3160 |  55.3 |  7366k |  15 |1581 |  48 |  48 |   0 |  1 |   0 |   0 | 8.000000e+00 | 9.000000e+00 |  12.50%| unknown
 time | node  | left  |LP iter|LP it/n|mem/heur|mdpt |vars |cons |rows |cuts |sepa|confs|strbr|  dualbound   | primalbound  |  gap   | compl. 
  201s|    46 |    29 |  3172 |  54.4 |  7367k |  15 |1581 |  48 |  48 |   0 |  1 |   0 |   0 | 8.000000e+00 | 9.000000e+00 |  12.50%| unknown
 time | node  | left  |LP iter|LP it/n|mem/heur|mdpt |vars |cons |rows |cuts |sepa|confs|strbr|  dualbound   | primalbound  |  gap   | compl. 
  201s|    47 |    30 |  3217 |  54.2 |  7373k |  15 |1581 |  48 |  48 |   0 |  1 |   0 |   0 | 8.000000e+00 | 9.000000e+00 |  12.50%| unknown
 time | node  | left  |LP iter|LP it/n|mem/heur|mdpt |vars |cons |rows |cuts |sepa|confs|strbr|  dualbound   | primalbound  |  gap   | compl. 
  201s|    48 |    31 |  3429 |  57.5 |  7423k |  15 |1581 |  48 |  48 |   0 |  1 |   0 |   0 | 8.000000e+00 | 9.000000e+00 |  12.50%| unknown
 time | node  | left  |LP iter|LP it/n|mem/heur|mdpt |vars |cons |rows |cuts |sepa|confs|strbr|  dualbound   | primalbound  |  gap   | compl. 
  201s|    49 |    32 |  3465 |  57.1 |  7425k |  15 |1581 |  48 |  48 |   0 |  1 |   0 |   0 | 8.000000e+00 | 9.000000e+00 |  12.50%| unknown
 time | node  | left  |LP iter|LP it/n|mem/heur|mdpt |vars |cons |rows |cuts |sepa|confs|strbr|  dualbound   | primalbound  |  gap   | compl. 
  201s|    50 |    33 |  3495 |  56.5 |  7430k |  15 |1581 |  48 |  48 |   0 |  1 |   0 |   0 | 8.000000e+00 | 9.000000e+00 |  12.50%| unknown
 time | node  | left  |LP iter|LP it/n|mem/heur|mdpt |vars |cons |rows |cuts |sepa|confs|strbr|  dualbound   | primalbound  |  gap   | compl. 
  201s|    51 |    34 |  3504 |  55.6 |  7432k |  15 |1581 |  48 |  48 |   0 |  1 |   0 |   0 | 8.000000e+00 | 9.000000e+00 |  12.50%| unknown
 time | node  | left  |LP iter|LP it/n|mem/heur|mdpt |vars |cons |rows |cuts |sepa|confs|strbr|  dualbound   | primalbound  |  gap   | compl. 
  220s|    52 |    35 |  3760 |  59.5 |  7821k |  15 |1710 |  48 |  48 |   0 |  1 |   0 |   0 | 8.000000e+00 | 9.000000e+00 |  12.50%| unknown
 time | node  | left  |LP iter|LP it/n|mem/heur|mdpt |vars |cons |rows |cuts |sepa|confs|strbr|  dualbound   | primalbound  |  gap   | compl. 
  241s|    53 |    36 |  3925 |  61.5 |  7946k |  15 |1765 |  48 |  48 |   0 |  1 |   0 |   0 | 8.000000e+00 | 9.000000e+00 |  12.50%| unknown
 time | node  | left  |LP iter|LP it/n|mem/heur|mdpt |vars |cons |rows |cuts |sepa|confs|strbr|  dualbound   | primalbound  |  gap   | compl. 
  241s|    54 |    37 |  4136 |  64.4 |  7953k |  15 |1765 |  48 |  48 |   0 |  1 |   0 |   0 | 8.000000e+00 | 9.000000e+00 |  12.50%| unknown
 time | node  | left  |LP iter|LP it/n|mem/heur|mdpt |vars |cons |rows |cuts |sepa|confs|strbr|  dualbound   | primalbound  |  gap   | compl. 
  241s|    55 |    38 |  4224 |  64.8 |  7953k |  15 |1765 |  48 |  48 |   0 |  1 |   0 |   0 | 8.000000e+00 | 9.000000e+00 |  12.50%| unknown
 time | node  | left  |LP iter|LP it/n|mem/heur|mdpt |vars |cons |rows |cuts |sepa|confs|strbr|  dualbound   | primalbound  |  gap   | compl. 
  241s|    56 |    39 |  4400 |  66.8 |  8061k |  15 |1765 |  48 |  48 |   0 |  1 |   0 |   0 | 8.000000e+00 | 9.000000e+00 |  12.50%| unknown
 time | node  | left  |LP iter|LP it/n|mem/heur|mdpt |vars |cons |rows |cuts |sepa|confs|strbr|  dualbound   | primalbound  |  gap   | compl. 
  241s|    57 |    40 |  4452 |  66.6 |  8065k |  15 |1765 |  48 |  48 |   0 |  1 |   0 |   0 | 8.000000e+00 | 9.000000e+00 |  12.50%| unknown
 time | node  | left  |LP iter|LP it/n|mem/heur|mdpt |vars |cons |rows |cuts |sepa|confs|strbr|  dualbound   | primalbound  |  gap   | compl. 
  241s|    58 |    41 |  4552 |  67.1 |  8079k |  15 |1765 |  48 |  48 |   0 |  1 |   0 |   0 | 8.000000e+00 | 9.000000e+00 |  12.50%| unknown
 time | node  | left  |LP iter|LP it/n|mem/heur|mdpt |vars |cons |rows |cuts |sepa|confs|strbr|  dualbound   | primalbound  |  gap   | compl. 
  241s|    59 |    42 |  4626 |  67.3 |  8079k |  15 |1765 |  48 |  48 |   0 |  1 |   0 |   0 | 8.000000e+00 | 9.000000e+00 |  12.50%| unknown
 time | node  | left  |LP iter|LP it/n|mem/heur|mdpt |vars |cons |rows |cuts |sepa|confs|strbr|  dualbound   | primalbound  |  gap   | compl. 
  241s|    60 |    43 |  4694 |  67.3 |  8079k |  15 |1765 |  48 |  48 |   0 |  1 |   0 |   0 | 8.000000e+00 | 9.000000e+00 |  12.50%| unknown
 time | node  | left  |LP iter|LP it/n|mem/heur|mdpt |vars |cons |rows |cuts |sepa|confs|strbr|  dualbound   | primalbound  |  gap   | compl. 
  241s|    61 |    44 |  4719 |  66.6 |  8085k |  15 |1765 |  48 |  48 |   0 |  1 |   0 |   0 | 8.000000e+00 | 9.000000e+00 |  12.50%| unknown
 time | node  | left  |LP iter|LP it/n|mem/heur|mdpt |vars |cons |rows |cuts |sepa|confs|strbr|  dualbound   | primalbound  |  gap   | compl. 
  242s|    62 |    45 |  4735 |  65.7 |  8090k |  15 |1765 |  48 |  48 |   0 |  1 |   0 |   0 | 8.000000e+00 | 9.000000e+00 |  12.50%| unknown
 time | node  | left  |LP iter|LP it/n|mem/heur|mdpt |vars |cons |rows |cuts |sepa|confs|strbr|  dualbound   | primalbound  |  gap   | compl. 
  249s|    63 |    44 |  4775 |  65.3 |  8099k |  15 |1775 |  48 |  48 |   0 |  0 |   0 |   0 | 8.000000e+00 | 9.000000e+00 |  12.50%| unknown
 time | node  | left  |LP iter|LP it/n|mem/heur|mdpt |vars |cons |rows |cuts |sepa|confs|strbr|  dualbound   | primalbound  |  gap   | compl. 
  249s|    64 |    45 |  4790 |  64.5 |  8099k |  15 |1775 |  48 |  48 |   0 |  1 |   0 |   0 | 8.000000e+00 | 9.000000e+00 |  12.50%| unknown
 time | node  | left  |LP iter|LP it/n|mem/heur|mdpt |vars |cons |rows |cuts |sepa|confs|strbr|  dualbound   | primalbound  |  gap   | compl. 
  249s|    65 |    46 |  4814 |  63.9 |  8296k |  15 |1775 |  48 |  48 |   0 |  1 |   0 |   0 | 8.000000e+00 | 9.000000e+00 |  12.50%| unknown
 time | node  | left  |LP iter|LP it/n|mem/heur|mdpt |vars |cons |rows |cuts |sepa|confs|strbr|  dualbound   | primalbound  |  gap   | compl. 
  250s|    66 |    45 |  4843 |  63.4 |  8320k |  15 |1777 |  48 |  48 |   0 |  0 |   0 |   0 | 8.000000e+00 | 9.000000e+00 |  12.50%| unknown
 time | node  | left  |LP iter|LP it/n|mem/heur|mdpt |vars |cons |rows |cuts |sepa|confs|strbr|  dualbound   | primalbound  |  gap   | compl. 
  250s|    67 |    46 |  4867 |  62.8 |  8385k |  15 |1777 |  48 |  48 |   0 |  1 |   0 |   0 | 8.000000e+00 | 9.000000e+00 |  12.50%| unknown
 time | node  | left  |LP iter|LP it/n|mem/heur|mdpt |vars |cons |rows |cuts |sepa|confs|strbr|  dualbound   | primalbound  |  gap   | compl. 
  250s|    68 |    47 |  5061 |  64.7 |  8398k |  15 |1777 |  48 |  48 |   0 |  1 |   0 |   0 | 8.000000e+00 | 9.000000e+00 |  12.50%| unknown
 time | node  | left  |LP iter|LP it/n|mem/heur|mdpt |vars |cons |rows |cuts |sepa|confs|strbr|  dualbound   | primalbound  |  gap   | compl. 
  251s|    69 |    46 |  5147 |  65.0 |  8401k |  15 |1797 |  48 |  48 |   0 |  0 |   0 |   0 | 8.000000e+00 | 9.000000e+00 |  12.50%| unknown
 time | node  | left  |LP iter|LP it/n|mem/heur|mdpt |vars |cons |rows |cuts |sepa|confs|strbr|  dualbound   | primalbound  |  gap   | compl. 
  251s|    70 |    45 |  5208 |  65.0 |  8401k |  15 |1805 |  48 |  48 |   0 |  0 |   0 |   0 | 8.000000e+00 | 9.000000e+00 |  12.50%| unknown
 time | node  | left  |LP iter|LP it/n|mem/heur|mdpt |vars |cons |rows |cuts |sepa|confs|strbr|  dualbound   | primalbound  |  gap   | compl. 
  253s|    71 |    44 |  5253 |  64.7 |  8401k |  15 |1816 |  48 |  48 |   0 |  0 |   0 |   0 | 8.000000e+00 | 9.000000e+00 |  12.50%| unknown
 time | node  | left  |LP iter|LP it/n|mem/heur|mdpt |vars |cons |rows |cuts |sepa|confs|strbr|  dualbound   | primalbound  |  gap   | compl. 
  253s|    72 |    45 |  5273 |  64.1 |  8401k |  15 |1816 |  48 |  48 |   0 |  1 |   0 |   0 | 8.000000e+00 | 9.000000e+00 |  12.50%| unknown
 time | node  | left  |LP iter|LP it/n|mem/heur|mdpt |vars |cons |rows |cuts |sepa|confs|strbr|  dualbound   | primalbound  |  gap   | compl. 
  253s|    73 |    46 |  5294 |  63.5 |  8414k |  15 |1816 |  48 |  48 |   0 |  1 |   0 |   0 | 8.000000e+00 | 9.000000e+00 |  12.50%| unknown
 time | node  | left  |LP iter|LP it/n|mem/heur|mdpt |vars |cons |rows |cuts |sepa|confs|strbr|  dualbound   | primalbound  |  gap   | compl. 
  253s|    74 |    47 |  5306 |  62.8 |  8416k |  15 |1816 |  48 |  48 |   0 |  1 |   0 |   0 | 8.000000e+00 | 9.000000e+00 |  12.50%| unknown
 time | node  | left  |LP iter|LP it/n|mem/heur|mdpt |vars |cons |rows |cuts |sepa|confs|strbr|  dualbound   | primalbound  |  gap   | compl. 
  253s|    75 |    48 |  5379 |  62.9 |  8429k |  15 |1816 |  48 |  48 |   0 |  1 |   0 |   0 | 8.000000e+00 | 9.000000e+00 |  12.50%| unknown
 time | node  | left  |LP iter|LP it/n|mem/heur|mdpt |vars |cons |rows |cuts |sepa|confs|strbr|  dualbound   | primalbound  |  gap   | compl. 
  253s|    76 |    49 |  5416 |  62.5 |  8431k |  15 |1816 |  48 |  48 |   0 |  1 |   0 |   0 | 8.000000e+00 | 9.000000e+00 |  12.50%| unknown
 time | node  | left  |LP iter|LP it/n|mem/heur|mdpt |vars |cons |rows |cuts |sepa|confs|strbr|  dualbound   | primalbound  |  gap   | compl. 
  254s|    77 |    50 |  5597 |  64.1 |  8448k |  15 |1824 |  48 |  48 |   0 |  1 |   0 |   0 | 8.000000e+00 | 9.000000e+00 |  12.50%| unknown
 time | node  | left  |LP iter|LP it/n|mem/heur|mdpt |vars |cons |rows |cuts |sepa|confs|strbr|  dualbound   | primalbound  |  gap   | compl. 
  254s|    78 |    51 |  5616 |  63.5 |  8450k |  15 |1824 |  48 |  48 |   0 |  1 |   0 |   0 | 8.000000e+00 | 9.000000e+00 |  12.50%| unknown
 time | node  | left  |LP iter|LP it/n|mem/heur|mdpt |vars |cons |rows |cuts |sepa|confs|strbr|  dualbound   | primalbound  |  gap   | compl. 
  254s|    79 |    52 |  5689 |  63.6 |  8464k |  15 |1824 |  48 |  48 |   0 |  1 |   0 |   0 | 8.000000e+00 | 9.000000e+00 |  12.50%| unknown
 time | node  | left  |LP iter|LP it/n|mem/heur|mdpt |vars |cons |rows |cuts |sepa|confs|strbr|  dualbound   | primalbound  |  gap   | compl. 
  254s|    80 |    53 |  5708 |  63.1 |  8467k |  15 |1824 |  48 |  48 |   0 |  1 |   0 |   0 | 8.000000e+00 | 9.000000e+00 |  12.50%| unknown
 time | node  | left  |LP iter|LP it/n|mem/heur|mdpt |vars |cons |rows |cuts |sepa|confs|strbr|  dualbound   | primalbound  |  gap   | compl. 
  254s|    81 |    54 |  5741 |  62.7 |  8472k |  15 |1824 |  48 |  48 |   0 |  1 |   0 |   0 | 8.000000e+00 | 9.000000e+00 |  12.50%| unknown
 time | node  | left  |LP iter|LP it/n|mem/heur|mdpt |vars |cons |rows |cuts |sepa|confs|strbr|  dualbound   | primalbound  |  gap   | compl. 
  254s|    82 |    55 |  5773 |  62.3 |  8474k |  15 |1824 |  48 |  48 |   0 |  1 |   0 |   0 | 8.000000e+00 | 9.000000e+00 |  12.50%| unknown
 time | node  | left  |LP iter|LP it/n|mem/heur|mdpt |vars |cons |rows |cuts |sepa|confs|strbr|  dualbound   | primalbound  |  gap   | compl. 
  254s|    83 |    56 |  5801 |  61.9 |  8475k |  15 |1824 |  48 |  48 |   0 |  1 |   0 |   0 | 8.000000e+00 | 9.000000e+00 |  12.50%| unknown
 time | node  | left  |LP iter|LP it/n|mem/heur|mdpt |vars |cons |rows |cuts |sepa|confs|strbr|  dualbound   | primalbound  |  gap   | compl. 
  255s|    84 |    57 |  5831 |  61.5 |  8475k |  15 |1824 |  48 |  48 |   0 |  1 |   0 |   0 | 8.000000e+00 | 9.000000e+00 |  12.50%| unknown
 time | node  | left  |LP iter|LP it/n|mem/heur|mdpt |vars |cons |rows |cuts |sepa|confs|strbr|  dualbound   | primalbound  |  gap   | compl. 
  255s|    85 |    58 |  5947 |  62.2 |  8475k |  15 |1824 |  48 |  48 |   0 |  1 |   0 |   0 | 8.000000e+00 | 9.000000e+00 |  12.50%| unknown
 time | node  | left  |LP iter|LP it/n|mem/heur|mdpt |vars |cons |rows |cuts |sepa|confs|strbr|  dualbound   | primalbound  |  gap   | compl. 
  255s|    86 |    59 |  6019 |  62.3 |  8626k |  15 |1854 |  48 |  48 |   0 |  1 |   0 |   0 | 8.000000e+00 | 9.000000e+00 |  12.50%| unknown
 time | node  | left  |LP iter|LP it/n|mem/heur|mdpt |vars |cons |rows |cuts |sepa|confs|strbr|  dualbound   | primalbound  |  gap   | compl. 
  255s|    87 |    60 |  6039 |  61.8 |  8631k |  15 |1854 |  48 |  48 |   0 |  1 |   0 |   0 | 8.000000e+00 | 9.000000e+00 |  12.50%| unknown
 time | node  | left  |LP iter|LP it/n|mem/heur|mdpt |vars |cons |rows |cuts |sepa|confs|strbr|  dualbound   | primalbound  |  gap   | compl. 
  255s|    88 |    61 |  6180 |  62.7 |  8632k |  15 |1854 |  48 |  48 |   0 |  1 |   0 |   0 | 8.000000e+00 | 9.000000e+00 |  12.50%| unknown
 time | node  | left  |LP iter|LP it/n|mem/heur|mdpt |vars |cons |rows |cuts |sepa|confs|strbr|  dualbound   | primalbound  |  gap   | compl. 
  255s|    89 |    62 |  6200 |  62.2 |  8635k |  15 |1854 |  48 |  48 |   0 |  1 |   0 |   0 | 8.000000e+00 | 9.000000e+00 |  12.50%| unknown
 time | node  | left  |LP iter|LP it/n|mem/heur|mdpt |vars |cons |rows |cuts |sepa|confs|strbr|  dualbound   | primalbound  |  gap   | compl. 
  256s|    90 |    63 |  6289 |  62.5 |  8684k |  15 |1922 |  48 |  48 |   0 |  1 |   0 |   0 | 8.000000e+00 | 9.000000e+00 |  12.50%| unknown
 time | node  | left  |LP iter|LP it/n|mem/heur|mdpt |vars |cons |rows |cuts |sepa|confs|strbr|  dualbound   | primalbound  |  gap   | compl. 
  260s|    91 |    62 |  6320 |  62.2 |  8690k |  15 |1927 |  48 |  48 |   0 |  0 |   0 |   0 | 8.000000e+00 | 9.000000e+00 |  12.50%| unknown
 time | node  | left  |LP iter|LP it/n|mem/heur|mdpt |vars |cons |rows |cuts |sepa|confs|strbr|  dualbound   | primalbound  |  gap   | compl. 
  260s|    92 |    63 |  6386 |  62.2 |  8772k |  15 |1962 |  48 |  48 |   0 |  1 |   0 |   0 | 8.000000e+00 | 9.000000e+00 |  12.50%| unknown
 time | node  | left  |LP iter|LP it/n|mem/heur|mdpt |vars |cons |rows |cuts |sepa|confs|strbr|  dualbound   | primalbound  |  gap   | compl. 
r 260s|    93 |     0 |  6398 |  61.7 |simplero|  15 |1962 |  48 |  48 |   0 |  0 |   0 |   0 | 8.000000e+00 | 8.000000e+00 |   0.00%|  99.96%

SCIP Status        : problem is solved [optimal solution found]
Solving Time (sec) : 259.90
Solving Nodes      : 93
Primal Bound       : +8.00000000000000e+00 (9 solutions)
Dual Bound         : +8.00000000000000e+00
Gap                : 0.00 %
Running with parallel: True bidir: False symbreak: True
Number of Nodes:  48
48.03512008101852% holds
starting cheapest insertion heuristic
Heuristic without TSP improvement:  10
Heuristic without TSP improvement time:  0.1
Heuristic Sol:  9
Heuristic total time:  0.1
[[0, 33, 46, 38], [12, 39, 22, 5, 6, 9, 8], [47, 16, 25, 24, 31, 40, 13, 36, 3], [45, 37, 34, 21, 7], [44, 15, 18, 19, 2, 1, 14, 29], [43, 42, 26], [41, 32, 30, 27], [35, 11, 17, 23, 4], [28, 10, 20]]
Instance path:  /home/htc/mghannam/SCRATCH/lccp-rust/data/t84_gr48.npcc
Timelimit:  7200
Heuristic without TSP improvement:  10
Heuristic without TSP improvement time:  0.1
Heuristic Sol:  9
Heuristic total time:  0.1
at 1 zero_duals: 39
at1, LP obj: 9.0 n_added_paths: 66
at 1 zero_duals: 35
at1, LP obj: 9.0 n_added_paths: 9
at 1 zero_duals: 26
at1, LP obj: 9.0 n_added_paths: 27
at 1 zero_duals: 21
at1, LP obj: 9.0 n_added_paths: 89
at 1 zero_duals: 11
at1, LP obj: 9.0 n_added_paths: 178
at 1 zero_duals: 31
at1, LP obj: 9.0 n_added_paths: 176
at 1 zero_duals: 9
at1, LP obj: 8.523972602739725 n_added_paths: 154
at 1 zero_duals: 8
at1, LP obj: 8.11111111111111 n_added_paths: 87
at 1 zero_duals: 6
at1, LP obj: 7.945945945945946 n_added_paths: 77
at 1 zero_duals: 4
at1, LP obj: 7.766636221294363 n_added_paths: 50
at 1 zero_duals: 4
at1, LP obj: 7.670529801324503 n_added_paths: 19
at 1 zero_duals: 6
at1, LP obj: 7.625 n_added_paths: 9
at 1 zero_duals: 3
Switching to elementary pricing
at1, LP obj: 7.599459459459459 n_added_paths: 35
updated lowerbound from 1.0 to 8
Gap too small = 0, stopping pricing with lb = 8
Gap too small = 0, stopping pricing with lb = 8
Gap too small = 0, stopping pricing with lb = 8
Gap too small = 0, stopping pricing with lb = 8
Gap too small = 0, stopping pricing with lb = 8
Gap too small = 0, stopping pricing with lb = 8
Gap too small = 0, stopping pricing with lb = 8
Gap too small = 0, stopping pricing with lb = 8
at 16 zero_duals: 11
Switching to elementary pricing
at16, LP obj: 8.659863945578232 n_added_paths: 332
Gap too small = 0, stopping pricing with lb = 8
Gap too small = 0, stopping pricing with lb = 8
Gap too small = 0, stopping pricing with lb = 8
at 21 zero_duals: 23
at21, LP obj: 8.083333333333334 n_added_paths: 12
Gap too small = 0, stopping pricing with lb = 8
Gap too small = 0, stopping pricing with lb = 8
at 26 zero_duals: 9
Switching to elementary pricing
at26, LP obj: 8.014035087719298 n_added_paths: 80
Gap too small = 0, stopping pricing with lb = 8
Gap too small = 0, stopping pricing with lb = 8
Gap too small = 0, stopping pricing with lb = 8
at 32 zero_duals: 8
Switching to elementary pricing
at32, LP obj: 8.025193798449612 n_added_paths: 30
Gap too small = 0, stopping pricing with lb = 8
Gap too small = 0, stopping pricing with lb = 8
at 33 zero_duals: 8
at33, LP obj: 8.044871794871794 n_added_paths: 7
at 33 zero_duals: 5
at33, LP obj: 8.031446540880504 n_added_paths: 5
at 33 zero_duals: 4
Switching to elementary pricing
at33, LP obj: 8.002958579881657 n_added_paths: 3
Gap too small = 0, stopping pricing with lb = 8
at 38 zero_duals: 5
Switching to elementary pricing
at38, LP obj: 8.040625 n_added_paths: 5
at 38 zero_duals: 9
Switching to elementary pricing
at38, LP obj: 8.0375 n_added_paths: 0
updated lowerbound from 8.0 to 9
at 39 zero_duals: 8
at39, LP obj: 8.055555555555555 n_added_paths: 2
at 39 zero_duals: 7
at39, LP obj: 8.05 n_added_paths: 6
at 39 zero_duals: 6
at39, LP obj: 8.05 n_added_paths: 2
at 39 zero_duals: 7
Switching to elementary pricing
at39, LP obj: 8.05 n_added_paths: 1
at 39 zero_duals: 7
Switching to elementary pricing
at39, LP obj: 8.046875 n_added_paths: 0
updated lowerbound from 8.0 to 9
Gap too small = 0, stopping pricing with lb = 8
Gap too small = 0, stopping pricing with lb = 8
at 37 zero_duals: 10
Switching to elementary pricing
at37, LP obj: 8.068181818181818 n_added_paths: 3
at 37 zero_duals: 13
Switching to elementary pricing
at37, LP obj: 8.046875 n_added_paths: 0
updated lowerbound from 8.0 to 9
Gap too small = 0, stopping pricing with lb = 8
at 44 zero_duals: 12
at44, LP obj: 8.027430555555556 n_added_paths: 7
Gap too small = 0, stopping pricing with lb = 8
at 35 zero_duals: 11
Switching to elementary pricing
at35, LP obj: 8.046875 n_added_paths: 2
at 35 zero_duals: 12
Switching to elementary pricing
at35, LP obj: 8.022633744855968 n_added_paths: 0
updated lowerbound from 8.0 to 9
at 47 zero_duals: 13
at47, LP obj: 8.03754266211604 n_added_paths: 4
at 47 zero_duals: 14
Switching to elementary pricing
at47, LP obj: 8.036363636363637 n_added_paths: 1
Gap too small = 0, stopping pricing with lb = 8
at 48 zero_duals: 11
Switching to elementary pricing
at48, LP obj: 8.026315789473685 n_added_paths: 1
at 48 zero_duals: 11
Switching to elementary pricing
at48, LP obj: 8.023255813953488 n_added_paths: 0
updated lowerbound from 8.0 to 9
at 46 zero_duals: 10
at46, LP obj: 8.075 n_added_paths: 7
at 46 zero_duals: 12
at46, LP obj: 8.0625 n_added_paths: 1
at 46 zero_duals: 9
Switching to elementary pricing
at46, LP obj: 8.051724137931034 n_added_paths: 19
at 46 zero_duals: 9
Switching to elementary pricing
at46, LP obj: 8.019736842105264 n_added_paths: 0
updated lowerbound from 8.0 to 9
Gap too small = 0, stopping pricing with lb = 8
Gap too small = 0, stopping pricing with lb = 8
Gap too small = 0, stopping pricing with lb = 8
at 54 zero_duals: 21
Switching to elementary pricing
at54, LP obj: 8.092592592592592 n_added_paths: 1
updated lowerbound from 8.0 to 9
Gap too small = 0, stopping pricing with lb = 8
Gap too small = 0, stopping pricing with lb = 8
Gap too small = 0, stopping pricing with lb = 8
Gap too small = 0, stopping pricing with lb = 8
Gap too small = 0, stopping pricing with lb = 8
Gap too small = 0, stopping pricing with lb = 8
Gap too small = 0, stopping pricing with lb = 8
Gap too small = 0, stopping pricing with lb = 8
at 70 zero_duals: 12
at70, LP obj: 8.064766839378239 n_added_paths: 7
at 70 zero_duals: 8
Switching to elementary pricing
at70, LP obj: 8.049342105263158 n_added_paths: 5
at 70 zero_duals: 8
Switching to elementary pricing
at70, LP obj: 8.042857142857143 n_added_paths: 0
updated lowerbound from 8.0 to 9
at 49 zero_duals: 12
at49, LP obj: 8.1 n_added_paths: 5
at 49 zero_duals: 11
Switching to elementary pricing
at49, LP obj: 8.097560975609756 n_added_paths: 0
updated lowerbound from 8.0 to 9
Gap too small = 0, stopping pricing with lb = 8
Gap too small = 0, stopping pricing with lb = 8
Gap too small = 0, stopping pricing with lb = 8
Gap too small = 0, stopping pricing with lb = 8
Gap too small = 0, stopping pricing with lb = 8
Gap too small = 0, stopping pricing with lb = 8
Gap too small = 0, stopping pricing with lb = 8
at 84 zero_duals: 10
at84, LP obj: 8.27699530516432 n_added_paths: 58
at 84 zero_duals: 7
Switching to elementary pricing
at84, LP obj: 8.013190954773869 n_added_paths: 71
Gap too small = 0, stopping pricing with lb = 8
at 83 zero_duals: 11
Switching to elementary pricing
at83, LP obj: 8.097222222222223 n_added_paths: 16
at 83 zero_duals: 6
Switching to elementary pricing
at83, LP obj: 8.010204081632653 n_added_paths: 39
Gap too small = 0, stopping pricing with lb = 8
Gap too small = 0, stopping pricing with lb = 8
Gap too small = 0, stopping pricing with lb = 8
Gap too small = 0, stopping pricing with lb = 8
Gap too small = 0, stopping pricing with lb = 8
Gap too small = 0, stopping pricing with lb = 8
Gap too small = 0, stopping pricing with lb = 8
Gap too small = 0, stopping pricing with lb = 8
Gap too small = 0, stopping pricing with lb = 8
Gap too small = 0, stopping pricing with lb = 8
at 106 zero_duals: 6
Switching to elementary pricing
at106, LP obj: 8.042207792207792 n_added_paths: 9
at 106 zero_duals: 9
Switching to elementary pricing
at106, LP obj: 8.039473684210527 n_added_paths: 1
updated lowerbound from 8.0 to 9
Gap too small = 0, stopping pricing with lb = 8
Gap too small = 0, stopping pricing with lb = 8
at 55 zero_duals: 8
at55, LP obj: 8.075 n_added_paths: 2
at 55 zero_duals: 8
Switching to elementary pricing
at55, LP obj: 8.061643835616438 n_added_paths: 0
updated lowerbound from 8.0 to 9
Gap too small = 0, stopping pricing with lb = 8
Gap too small = 0, stopping pricing with lb = 8
at 61 zero_duals: 17
at61, LP obj: 8.466666666666667 n_added_paths: 7
at 61 zero_duals: 16
Switching to elementary pricing
at61, LP obj: 8.320754716981131 n_added_paths: 11
at 61 zero_duals: 13
Switching to elementary pricing
at61, LP obj: 8.25 n_added_paths: 2
updated lowerbound from 8.0 to 9
at 62 zero_duals: 11
at62, LP obj: 8.154761904761905 n_added_paths: 4
at 62 zero_duals: 11
Switching to elementary pricing
at62, LP obj: 8.142857142857142 n_added_paths: 3
at 62 zero_duals: 11
Switching to elementary pricing
at62, LP obj: 8.133333333333333 n_added_paths: 1
updated lowerbound from 8.0 to 9
at 69 zero_duals: 8
Switching to elementary pricing
at69, LP obj: 8.280323450134771 n_added_paths: 11
at 69 zero_duals: 12
Switching to elementary pricing
at69, LP obj: 8.2 n_added_paths: 0
updated lowerbound from 8.0 to 9
Gap too small = 0, stopping pricing with lb = 8
Gap too small = 0, stopping pricing with lb = 8
Gap too small = 0, stopping pricing with lb = 8
Gap too small = 0, stopping pricing with lb = 8
Gap too small = 0, stopping pricing with lb = 8
at 124 zero_duals: 10
Switching to elementary pricing
at124, LP obj: 8.015113350125944 n_added_paths: 8
Gap too small = 0, stopping pricing with lb = 8
Gap too small = 0, stopping pricing with lb = 8
Gap too small = 0, stopping pricing with lb = 8
Gap too small = 0, stopping pricing with lb = 8
Gap too small = 0, stopping pricing with lb = 8
Gap too small = 0, stopping pricing with lb = 8
Gap too small = 0, stopping pricing with lb = 8
Gap too small = 0, stopping pricing with lb = 8
Gap too small = 0, stopping pricing with lb = 8
at 135 zero_duals: 8
at135, LP obj: 8.012658227848101 n_added_paths: 30
Gap too small = 0, stopping pricing with lb = 8
Gap too small = 0, stopping pricing with lb = 8
Gap too small = 0, stopping pricing with lb = 8
Gap too small = 0, stopping pricing with lb = 8
at 150 zero_duals: 9
Switching to elementary pricing
at150, LP obj: 8.24904214559387 n_added_paths: 68
Gap too small = 0, stopping pricing with lb = 8
at 152 zero_duals: 8
Switching to elementary pricing
at152, LP obj: 8.034090909090908 n_added_paths: 5
at 152 zero_duals: 7
Switching to elementary pricing
at152, LP obj: 8.007575757575758 n_added_paths: 0
updated lowerbound from 8.0 to 9
at 139 zero_duals: 14
at139, LP obj: 8.072727272727272 n_added_paths: 35
Gap too small = 0, stopping pricing with lb = 8
Best solution found:
[45, 30, 28, 37, 34, 45] 1.0 1.0
checking cycle [45, 30, 28, 37, 34, 45]
[45, 30, 28, 37, 34, 45] 677 636
[46, 10, 20, 33, 46] 1.0 1.0000000000000013
checking cycle [46, 10, 20, 33, 46]
[46, 10, 20, 33, 46] 651 387
[38, 27, 32, 16, 25, 0, 38] 1.0 1.0000000000000004
checking cycle [38, 27, 32, 16, 25, 0, 38]
[38, 27, 32, 16, 25, 0, 38] 838 777
[39, 22, 35, 5, 8, 12, 39] 1.0 1.0
checking cycle [39, 22, 35, 5, 8, 12, 39]
[39, 22, 35, 5, 8, 12, 39] 819 744
[41, 2, 9, 21, 7, 41] 1.0 1.0
checking cycle [41, 2, 9, 21, 7, 41]
[41, 2, 9, 21, 7, 41] 792 784
[44, 1, 15, 19, 43, 31, 26, 42, 44] 1.0 0.9999999999999999
checking cycle [44, 1, 15, 19, 43, 31, 26, 42, 44]
[44, 1, 15, 19, 43, 31, 26, 42, 44] 748 726
[29, 14, 6, 4, 23, 11, 17, 29] 1.0 1.0
checking cycle [29, 14, 6, 4, 23, 11, 17, 29]
[29, 14, 6, 4, 23, 11, 17, 29] 967 836
[47, 3, 36, 13, 40, 18, 24, 47] 1.0 1.0000000000000002
checking cycle [47, 3, 36, 13, 40, 18, 24, 47]
[47, 3, 36, 13, 40, 18, 24, 47] 636 625
